(set-info :smt-lib-version 2.6)
(set-logic QF_UFLRA)
(set-info :source |
MathSat group

|)
(set-info :category "random")
(set-info :status sat)
(declare-fun x0 () Real)
(declare-fun x1 () Real)
(declare-fun x2 () Real)
(declare-fun x3 () Real)
(declare-fun x4 () Real)
(declare-fun x5 () Real)
(declare-fun x6 () Real)
(declare-fun x7 () Real)
(declare-fun x8 () Real)
(declare-fun x9 () Real)
(declare-fun x10 () Real)
(declare-fun x11 () Real)
(declare-fun x12 () Real)
(declare-fun x13 () Real)
(declare-fun x14 () Real)
(declare-fun x15 () Real)
(declare-fun x16 () Real)
(declare-fun x17 () Real)
(declare-fun x18 () Real)
(declare-fun x19 () Real)
(declare-fun x20 () Real)
(declare-fun x21 () Real)
(declare-fun x22 () Real)
(declare-fun x23 () Real)
(declare-fun x24 () Real)
(declare-fun x25 () Real)
(declare-fun x26 () Real)
(declare-fun x27 () Real)
(declare-fun x28 () Real)
(declare-fun x29 () Real)
(declare-fun x30 () Real)
(declare-fun x31 () Real)
(declare-fun x32 () Real)
(declare-fun x33 () Real)
(declare-fun x34 () Real)
(declare-fun x35 () Real)
(declare-fun x36 () Real)
(declare-fun x37 () Real)
(declare-fun x38 () Real)
(declare-fun x39 () Real)
(declare-fun x40 () Real)
(declare-fun x41 () Real)
(declare-fun x42 () Real)
(declare-fun x43 () Real)
(declare-fun x44 () Real)
(declare-fun x45 () Real)
(declare-fun x46 () Real)
(declare-fun x47 () Real)
(declare-fun x48 () Real)
(declare-fun x49 () Real)
(declare-fun f0_1 (Real) Real)
(declare-fun f0_2 (Real Real) Real)
(declare-fun f0_3 (Real Real Real) Real)
(declare-fun f0_4 (Real Real Real Real) Real)
(declare-fun P0 () Bool)
(declare-fun P1 () Bool)
(declare-fun P2 () Bool)
(declare-fun P3 () Bool)
(declare-fun P4 () Bool)
(declare-fun P5 () Bool)
(declare-fun P6 () Bool)
(declare-fun P7 () Bool)
(declare-fun P8 () Bool)
(declare-fun P9 () Bool)
(declare-fun P10 () Bool)
(declare-fun P11 () Bool)
(declare-fun P12 () Bool)
(declare-fun P13 () Bool)
(declare-fun P14 () Bool)
(declare-fun P15 () Bool)
(declare-fun P16 () Bool)
(declare-fun P17 () Bool)
(declare-fun P18 () Bool)
(declare-fun P19 () Bool)
(declare-fun P20 () Bool)
(declare-fun P21 () Bool)
(declare-fun P22 () Bool)
(declare-fun P23 () Bool)
(declare-fun P24 () Bool)
(declare-fun P25 () Bool)
(declare-fun P26 () Bool)
(declare-fun P27 () Bool)
(declare-fun P28 () Bool)
(declare-fun P29 () Bool)
(declare-fun P30 () Bool)
(declare-fun P31 () Bool)
(declare-fun P32 () Bool)
(declare-fun P33 () Bool)
(declare-fun P34 () Bool)
(declare-fun P35 () Bool)
(declare-fun P36 () Bool)
(declare-fun P37 () Bool)
(declare-fun P38 () Bool)
(declare-fun P39 () Bool)
(declare-fun P40 () Bool)
(declare-fun P41 () Bool)
(declare-fun P42 () Bool)
(declare-fun P43 () Bool)
(declare-fun P44 () Bool)
(declare-fun P45 () Bool)
(declare-fun P46 () Bool)
(declare-fun P47 () Bool)
(declare-fun P48 () Bool)
(declare-fun P49 () Bool)
(assert (let ((?v_104 (* 16 x22))) (let ((?v_241 (<= (- (- (* 11 x6) (* 23 x47)) ?v_104) 25)) (?v_18 (* 14 x35))) (let ((?v_16 (< (- (+ ?v_18 (* 12 x19)) (* 25 x24)) 12)) (?v_157 (<= (+ (- (* 7 x31) (* 10 x39)) (* 27 x39)) 15)) (?v_19 (* 26 x25)) (?v_61 (* 9 x22)) (?v_117 (* 6 x46)) (?v_239 (<= (+ (- (* 15 x33) (* 4 x8)) (* 17 x37)) 5)) (?v_32 (* 17 x23)) (?v_124 (<= (- (- (* 10 x40) (* 22 x5)) (* 21 x10)) 13)) (?v_64 (* 18 x6))) (let ((?v_221 (< (- (+ (* 2 x6) ?v_61) (* 23 x38)) 15)) (?v_25 (* 26 x37))) (let ((?v_42 (<= (- (+ ?v_18 ?v_25) (* 18 x18)) 9)) (?v_37 (* 25 x15))) (let ((?v_134 (<= (+ (- ?v_32 (* 23 x7)) ?v_37) 20)) (?v_122 (< (- (- ?v_64 (* 18 x44)) (* 14 x11)) 21)) (?v_76 (distinct x31 (f0_2 x10 x34))) (?v_77 (f0_1 x47))) (let ((?v_142 (distinct ?v_77 x26)) (?v_36 (f0_1 x46))) (let ((?v_227 (= (f0_2 x42 x33) ?v_36)) (?v_88 (= x21 x7)) (?v_15 (= x17 (f0_2 x46 x32))) (?v_79 (f0_1 x15))) (let ((?v_99 (distinct ?v_79 (f0_1 x8))) (?v_66 (f0_1 x24)) (?v_9 (f0_1 x42))) (let ((?v_24 (= ?v_66 ?v_9)) (?v_40 (= x8 (f0_2 x29 x5))) (?v_26 (= x3 (f0_2 x16 x22))) (?v_207 (= (f0_1 x49) (f0_2 x39 x8))) (?v_131 (= (f0_2 x5 x30) (f0_2 x9 x29))) (?v_5 (distinct (f0_2 x34 x47) (f0_2 x2 x28))) (?v_217 (= ?v_9 x1)) (?v_1 (f0_1 x9))) (let ((?v_69 (distinct ?v_1 x17)) (?v_29 (= ?v_9 (f0_2 x24 x14))) (?v_11 (f0_1 x13))) (let ((?v_12 (= (f0_2 x33 x22) ?v_11)) (?v_50 (f0_1 x21))) (let ((?v_90 (distinct (f0_1 x33) ?v_50)) (?v_165 (f0_1 x28))) (let ((?v_54 (distinct x32 ?v_165)) (?v_34 (distinct x30 x26)) (?v_119 (= (f0_2 x16 x9) (f0_1 x43))) (?v_150 (distinct (f0_1 x12) (f0_1 x2))) (?v_8 (= (f0_2 x31 x13) (f0_2 x40 x21))) (?v_186 (= (f0_1 x10) ?v_66)) (?v_101 (= ?v_77 (f0_1 x14))) (?v_105 (= x47 ?v_50)) (?v_3 (f0_1 x18))) (let ((?v_4 (distinct ?v_3 ?v_36)) (?v_216 (= x38 x47)) (?v_156 (distinct x33 x27)) (?v_205 (distinct ?v_165 ?v_9)) (?v_14 (distinct x9 (f0_2 x5 x8))) (?v_137 (= x28 ?v_1)) (?v_173 (distinct ?v_77 x28)) (?v_234 (distinct (f0_2 x41 x49) x4)) (?v_85 (distinct x37 (f0_2 x6 x48))) (?v_92 (f0_1 x20))) (let ((?v_97 (distinct x8 ?v_92)) (?v_57 (distinct x35 x14)) (?v_20 (= ?v_11 ?v_1)) (?v_132 (= ?v_92 (f0_2 x27 x33))) (?v_33 (distinct x35 (f0_2 x49 x23))) (?v_220 (= ?v_36 (f0_2 x44 x47))) (?v_93 (distinct (f0_1 x16) (f0_1 x31))) (?v_110 (distinct (f0_1 x6) ?v_79)) (?v_45 (distinct (f0_2 x49 x47) (f0_2 x32 x7))) (?v_141 (= ?v_3 x40)) (?v_126 (= (f0_1 x30) (f0_2 x8 x26))) (?v_56 (= x24 (f0_2 x32 x12))) (?v_253 (distinct x5 (f0_2 x17 x19))) (?v_65 (distinct (f0_2 x4 x46) (f0_1 x17))) (?v_28 (= x7 (f0_1 x0))) (?v_63 (= (f0_1 x19) ?v_11)) (?v_0 (not ?v_26)) (?v_6 (not ?v_137)) (?v_180 (not ?v_16)) (?v_41 (not P31)) (?v_7 (not ?v_88))) (let ((?v_113 (not ?v_141)) (?v_39 (not ?v_4)) (?v_106 (not ?v_5)) (?v_127 (not P8)) (?v_49 (not ?v_124)) (?v_21 (not P19)) (?v_182 (not P7)) (?v_103 (not ?v_8)) (?v_215 (not ?v_57)) (?v_259 (not ?v_28)) (?v_254 (not ?v_63)) (?v_31 (not ?v_54)) (?v_72 (not ?v_134)) (?v_174 (not ?v_14)) (?v_81 (not P13)) (?v_144 (not P42)) (?v_167 (not P48)) (?v_71 (not ?v_20)) (?v_47 (not ?v_24)) (?v_130 (not P27)) (?v_109 (not ?v_40)) (?v_264 (not ?v_217)) (?v_228 (not P45)) (?v_247 (not P43)) (?v_82 (not ?v_29)) (?v_195 (not ?v_105)) (?v_91 (not ?v_34)) (?v_136 (not P40)) (?v_48 (not ?v_110)) (?v_222 (not ?v_12)) (?v_175 (not P33)) (?v_196 (not P46)) (?v_80 (not P25)) (?v_108 (not ?v_227)) (?v_70 (not P6)) (?v_96 (not P21)) (?v_107 (not ?v_119)) (?v_60 (not P37)) (?v_166 (not ?v_45)) (?v_168 (not ?v_65)) (?v_55 (not ?v_76)) (?v_59 (not P22)) (?v_158 (not ?v_90)) (?v_75 (not ?v_56)) (?v_261 (not P14)) (?v_118 (not ?v_122)) (?v_67 (not P2)) (?v_89 (not P5)) (?v_203 (not ?v_69)) (?v_191 (not P18)) (?v_260 (not ?v_126)) (?v_94 (not ?v_97)) (?v_225 (not ?v_173)) (?v_86 (not P16)) (?v_181 (not ?v_142)) (?v_200 (not ?v_216)) (?v_164 (not P36)) (?v_135 (not ?v_207)) (?v_128 (not ?v_33)) (?v_232 (not ?v_99)) (?v_246 (not P30)) (?v_149 (not P4)) (?v_121 (not ?v_241)) (?v_194 (not P47)) (?v_184 (not ?v_220)) (?v_258 (not P39)) (?v_219 (not P20)) (?v_185 (not P11)) (?v_263 (not ?v_253)) (?v_187 (not P3)) (?v_190 (not ?v_101)) (?v_243 (not P23)) (?v_199 (not P0)) (?v_193 (not P24)) (?v_148 (not ?v_132)) (?v_138 (not P32)) (?v_152 (not ?v_15)) (?v_163 (not ?v_234)) (?v_146 (not P44)) (?v_140 (not P29)) (?v_240 (not ?v_85)) (?v_204 (not ?v_157)) (?v_198 (not P35)) (?v_153 (not P9)) (?v_171 (not P12)) (?v_231 (not P1)) (?v_169 (not P41)) (?v_197 (not P28)) (?v_238 (not P34)) (?v_229 (not P26)) (?v_268 (not P15)) (?v_214 (not P17)) (?v_257 (not P38)) (?v_212 (not ?v_205)) (?v_265 (not P49)) (?v_251 (not P10)) (?v_237 (not ?v_93)) (?v_262 (not ?v_221)) (?v_248 (not ?v_131)) (?v_226 (not ?v_42)) (?v_244 (not ?v_150)) (?v_242 (not ?v_239)) (?v_267 (not ?v_156)) (?v_120 (< (+ (* 16 x4) (* 20 x38) (* 14 x12)) 0))) (let ((?v_2 (not ?v_120)) (?v_98 (<= (- (- 0 (* 27 x33)) (* 8 x23)) 13)) (?v_125 (< (+ ?v_37 (* 27 x47) (* 2 x22)) 18)) (?v_52 (<= (- (* 25 x19) (* 19 x8)) 21)) (?v_73 (<= (+ ?v_104 (* 6 x16) (* 10 x1)) 7))) (let ((?v_178 (not ?v_52)) (?v_155 (not ?v_98)) (?v_252 (not ?v_73)) (?v_143 (not ?v_125)) (?v_160 (<= (+ (* 2 x24) (* 24 x44) (* 24 x27)) 28))) (let ((?v_176 (not ?v_160)) (?v_115 (<= (- (- (* 21 x37) (* 2 x32)) (* 14 x17)) (- 11))) (?v_13 (distinct (- (+ (* (- 24) x33) (* 20 x41)) 0) (- 21))) (?v_62 (<= (- (+ (* (- 15) x14) (* 20 x17)) (* 17 x29)) (- 8))) (?v_35 (<= (- (- (* (- 22) x11) (* 2 x17)) 0) (- 18)))) (let ((?v_17 (not ?v_35)) (?v_87 (< (- (+ (* 10 x36) (* 27 x38)) ?v_61) (- 12))) (?v_170 (< (- (* 19 x30) ?v_19) (- 28))) (?v_10 (< (- (+ (* 10 x38) (* 11 x28)) 0) (- 10)))) (let ((?v_133 (not ?v_10)) (?v_22 (<= (- (+ (* (- 6) x18) (* 11 x3)) (* 10 x14)) (- 25))) (?v_100 (< (+ (- (* 2 x41) (* 22 x32)) (* 3 x6)) (- 19))) (?v_111 (< (+ (- (* 11 x24) (* 12 x26)) (* 25 x33)) (- 12))) (?v_188 (not ?v_13)) (?v_23 (= (+ (* 9 x17) (* 26 x16) (* 3 x11)) (- 20)))) (let ((?v_51 (not ?v_23)) (?v_30 (< (- (- (* (- 21) x37) (* 15 x16)) (* 16 x24)) (- 23))) (?v_38 (<= (+ (* (- 20) x29) (* 6 x34)) (- 11))) (?v_83 (< (+ (- (* (- 22) x28) ?v_117) ?v_19) 8))) (let ((?v_27 (not ?v_83)) (?v_44 (< (- (- x19 (* 23 x21)) (* 15 x24)) (- 10))) (?v_151 (or P18 ?v_23)) (?v_161 (not ?v_22)) (?v_43 (< (- (+ (* (- 11) x42) (* 24 x32)) 0) (- 26)))) (let ((?v_192 (not ?v_43)) (?v_46 (< (+ (- ?v_25 (* 9 x45)) (* 10 x29)) (- 16)))) (let ((?v_129 (not ?v_46)) (?v_53 (= (- (+ (* (- 17) x17) (* 16 x1)) (* 10 x23)) (- 19))) (?v_84 (< (+ (- (* (- 25) x44) ?v_64) (* 16 x8)) 12)) (?v_102 (< (- (- (* (- 14) x21) (* 27 x9)) (* 25 x40)) 7)) (?v_95 (not ?v_30)) (?v_116 (< (- (+ (* (- 27) x49) (* 8 x19)) ?v_32) (- 6))) (?v_74 (< (- (+ (* (- 24) x34) (* 6 x13)) (* 17 x30)) (- 17)))) (let ((?v_213 (not ?v_74)) (?v_172 (not ?v_44)) (?v_209 (not ?v_38)) (?v_68 (< (+ (- (* (- 5) x44) (* 19 x37)) (* 10 x19)) 2)) (?v_58 (<= (- (- (* 2 x37) (* 7 x8)) (* 11 x8)) (- 4)))) (let ((?v_162 (not ?v_58)) (?v_179 (< (+ (- (* (- 9) x48) (* 6 x9)) (* 18 x35)) 1))) (let ((?v_154 (not ?v_179)) (?v_112 (not ?v_68)) (?v_145 (<= (- (* (- 16) x41) (* 23 x33)) 4))) (let ((?v_139 (not ?v_145)) (?v_114 (< (+ (* (- 11) x38) (* 18 x19) (* 23 x14)) 5)) (?v_78 (< (- (+ (* (- 19) x49) (* 22 x10)) (* 22 x24)) 16))) (let ((?v_266 (not ?v_78)) (?v_224 (not ?v_84)) (?v_123 (< (+ (* (- 19) x19) (* 2 x39)) 2)) (?v_183 (not ?v_100)) (?v_249 (not ?v_102)) (?v_223 (not ?v_114)) (?v_202 (not ?v_115)) (?v_147 (= (- (+ (* (- 15) x26) (* 14 x25)) (* 14 x46)) 25)) (?v_177 (< (+ (* (- 17) x25) (* 22 x35) ?v_117) 3)) (?v_201 (<= (+ (- (* (- 11) x16) (* 20 x40)) (* 13 x37)) (- 16)))) (let ((?v_208 (not ?v_201)) (?v_218 (not ?v_62)) (?v_206 (< (+ (- (* (- 7) x21) (* 2 x20)) (* 2 x1)) (- 12)))) (let ((?v_235 (not ?v_206)) (?v_159 (distinct (+ (- (* (- 24) x44) (* 12 x3)) (* 6 x25)) (- 10)))) (let ((?v_236 (not ?v_159)) (?v_189 (not ?v_123)) (?v_255 (not ?v_87)) (?v_211 (not ?v_111)) (?v_230 (< (+ (- (* (- 1) x10) (* 21 x16)) (* 15 x36)) 1))) (let ((?v_210 (not ?v_230)) (?v_233 (not ?v_147)) (?v_250 (not ?v_177)) (?v_245 (not ?v_116)) (?v_256 (not ?v_170))) (and (and (and (and (and (and (and (and (and (and (and (and (and (and (and (and (and (and (and (and (and (and (and (and (and (and (and (and (and (and (and (and (and (and (and (and (and (and (and (and (and (and (and (and (and (and (and (and (and (and (and (and (and (and (and (and (and (and (and (and (and (and (and (and (and (and (and (and (and (and (and (and (and (and (and (and (and (and (and (and (and (and (and (and (and (and (and (and (and (and (and (and (and (and (and (and (and (and (and (and (and (and (and (and (and (and (and (and (and (and (and (and (and (and (and (and (and (and (and (and (and (and (and (and (and (and (and (and (and (and (and (and (and (and (and (and (and (and (and (and (and (and (and (and (and (and (and (and (and (and (and (and (and (and (and (and (and (and (and (and (and (and (and (and (and (and (and (and (and (and (and (and (and (and (and (and (and (and (and (and (and (and (and (and (and (and (and (and (and (and (and (and (and (and (and (and (and (and (and (and (and (and (and (and (and (and (and (and (and (and (and (and (and (and (and (and (and (and (and (and (and (and (and (and (and (and (and (and (and (and (and (and (and (and (and (and (and (and (and (and (and (and (and (and (and (and (and (and (and (and (and (and (and (and (and (and (and (and (and (and (and (and (and (and (and (and (and (and (and (and (and (and (and (and (and (and (and (and (and (and (and (and (and (and (and (and (and (and (and (and (and (and (and (and (and (and (and (and (and (and (and (and (and (and (and (and (and (and (and (and (and (and (and (and (and (and (and (and (and (and (and (and (and (and (and (and (and (and (and (and (and (and (and (and (and (and (and (and (and (and (and (and (and (and (and (and (and (and (and (and (and (and (and (and (and (and (and (and (and (and (and (and (and (and (and (and (and (and (and (and (and (and (and (and (and (and (and (and (and (and (and (and (and (and (and (and (and (and (and (and (and (and (and (and (and (and (and (and (and (and (and (and (and (and (and (and (and (and (and (and (and (and (and (and (and (and (and (and (and (and (and (and (and (and (and (and (and (and (and (and (and (and (and (and (and (and (and (and (and (and (and (and (and (and (and (and (and (and (and (and (and (and (and (and (and (and (and (and (and (and (and (and (and (and (and (and (and (and (and (and (and (and (and (and (and (and (and (and (and (and (and (and (and (and (and (and (and (and (and (and (and (and (and (and (and (and (and (and (and (and (and (and (and (and (and (and (and (and (and (and (and (and (and (and (and (and (and (and (and (and (and (and (and (and (and (and (and (and (and (and (and (and (and (and (and (and (and (and (and (and (and (and (and (and (and (and (and (and (and (and (and (and (and (and (and (and (and (and (and (and (and (and (and (and (and (and (and (and (and (and (and (and (and (and (and (and (and (and (and (and (and (and (and (and (and (and (and (and (and (and (and (and (and (and (and (and (and (and (and (or (or P47 ?v_2) ?v_115) (or (or ?v_8 ?v_13) ?v_0)) (or (or ?v_24 ?v_6) ?v_15)) (or (or ?v_180 ?v_0) ?v_62)) (or (or ?v_5 ?v_41) ?v_17)) (or (or ?v_7 ?v_20) ?v_2)) (or (or ?v_113 ?v_87) ?v_39)) (or (or ?v_170 P41) ?v_4)) (or (or ?v_133 ?v_22) ?v_106)) (or (or ?v_6 P38) ?v_100)) (or (or P25 ?v_127) P0)) (or (or P22 ?v_49) ?v_111)) (or (or ?v_7 ?v_21) ?v_14)) (or (or P25 ?v_33) ?v_182)) (or (or ?v_103 ?v_215) ?v_259)) (or (or ?v_29 ?v_93) P19)) (or (or P21 ?v_10) ?v_12)) (or (or P41 P30) ?v_254)) (or (or ?v_12 ?v_188) ?v_51)) (or (or P25 ?v_2) ?v_30)) (or (or ?v_31 P36) ?v_13)) (or (or ?v_72 ?v_174) ?v_7)) (or (or ?v_15 ?v_16) ?v_81)) (or (or ?v_56 ?v_17) ?v_42)) (or (or ?v_144 P7) ?v_38)) (or (or P12 ?v_27) ?v_167)) (or (or ?v_44 ?v_71) ?v_21)) (or (or ?v_45 ?v_22) P18)) (or ?v_151 ?v_47)) (or (or ?v_161 ?v_130) ?v_192)) (or (or ?v_109 P11) ?v_34)) (or (or ?v_129 ?v_264) ?v_26)) (or (or ?v_53 ?v_228) ?v_27)) (or (or P49 ?v_84) ?v_14)) (or (or ?v_247 ?v_102) P41)) (or (or ?v_5 ?v_28) ?v_82)) (or (or ?v_195 P21) ?v_95)) (or (or ?v_31 ?v_116) ?v_33)) (or (or ?v_91 ?v_136) ?v_98)) (or (or P30 ?v_48) ?v_222)) (or (or P24 P12) P14)) (or (or ?v_175 ?v_196) ?v_80)) (or (or ?v_35 ?v_108) P24)) (or (or ?v_125 ?v_33) ?v_70)) (or (or ?v_38 ?v_39) ?v_40)) (or (or ?v_41 ?v_96) P23)) (or (or ?v_107 P3) ?v_52)) (or (or ?v_42 ?v_43) ?v_69)) (or (or P26 ?v_34) ?v_213)) (or (or ?v_16 ?v_60) P40)) (or (or P46 P43) ?v_172)) (or (or ?v_85 ?v_166) P28)) (or (or ?v_46 ?v_168) ?v_13)) (or (or ?v_47 ?v_209) ?v_55)) (or (or ?v_48 P3) ?v_2)) (or (or ?v_49 ?v_59) ?v_68)) (or (or ?v_158 ?v_51) P40)) (or (or ?v_52 ?v_53) ?v_54)) (or (or ?v_73 ?v_58) ?v_55)) (or (or ?v_75 ?v_13) P8)) (or (or ?v_57 ?v_51) P18)) (or (or ?v_24 ?v_162) ?v_178)) (or (or P16 P21) ?v_59)) (or (or ?v_261 P38) ?v_60)) (or (or ?v_221 P45) ?v_47)) (or (or ?v_62 P43) ?v_34)) (or (or ?v_63 ?v_118) ?v_65)) (or (or P0 P45) (not ?v_186))) (or (or ?v_34 ?v_154) ?v_67)) (or (or ?v_67 ?v_112) ?v_56)) (or (or ?v_89 ?v_28) ?v_203)) (or (or ?v_70 ?v_71) P48)) (or (or ?v_139 ?v_191) ?v_260)) (or (or ?v_72 ?v_114) ?v_73)) (or (or ?v_94 P20) ?v_74)) (or (or ?v_22 ?v_225) ?v_5)) (or (or ?v_86 ?v_150) ?v_75)) (or (or ?v_21 ?v_76) ?v_78)) (or (or ?v_101 ?v_181) ?v_58)) (or (or ?v_266 ?v_52) ?v_200)) (or (or P15 ?v_21) ?v_99)) (or (or P0 ?v_80) ?v_81)) (or (or ?v_82 ?v_83) ?v_224)) (or (or ?v_164 ?v_85) ?v_86)) (or (or ?v_87 ?v_75) ?v_88)) (or (or ?v_6 ?v_84) ?v_31)) (or (or ?v_123 ?v_89) ?v_156)) (or (or P35 ?v_90) P14)) (or (or ?v_91 ?v_132) ?v_0)) (or (or ?v_6 ?v_93) P40)) (or (or ?v_87 ?v_94) ?v_95)) (or (or P32 ?v_84) ?v_76)) (or (or ?v_96 ?v_135) ?v_97)) (or (or P18 P35) P14)) (or (or ?v_155 ?v_35) ?v_75)) (or (or ?v_86 ?v_128) ?v_21)) (or (or ?v_232 ?v_98) ?v_246)) (or (or P37 ?v_183) ?v_131)) (or (or ?v_47 ?v_149) ?v_101)) (or (or ?v_249 ?v_17) ?v_22)) (or (or ?v_103 P20) ?v_121)) (or (or ?v_73 P14) ?v_105)) (or (or ?v_106 ?v_107) ?v_40)) (or (or ?v_28 ?v_108) ?v_109)) (or (or ?v_109 ?v_194) P25)) (or (or ?v_106 P8) P13)) (or (or P11 ?v_110) ?v_111)) (or (or ?v_12 ?v_112) ?v_113)) (or (or ?v_223 ?v_202) ?v_116)) (or (or ?v_87 ?v_147) ?v_45)) (or (or ?v_184 ?v_177) ?v_258)) (or (or ?v_219 ?v_185) ?v_78)) (or (or ?v_263 ?v_118) ?v_119)) (or (or ?v_120 ?v_59) P47)) (or (or ?v_121 P9) ?v_56)) (or (or ?v_252 ?v_94) ?v_89)) (or (or ?v_122 ?v_34) ?v_123)) (or (or ?v_208 ?v_23) ?v_85)) (or (or ?v_71 P39) ?v_124)) (or (or P31 ?v_94) ?v_187)) (or (or ?v_143 ?v_190) ?v_0)) (or (or ?v_91 ?v_124) P41)) (or (or P47 ?v_218) ?v_126)) (or (or ?v_120 P13) ?v_243)) (or (or P35 P35) ?v_93)) (or (or ?v_199 ?v_127) ?v_118)) (or (or P24 ?v_128) ?v_56)) (or (or ?v_59 ?v_72) ?v_17)) (or (or ?v_129 ?v_130) ?v_131)) (or (or ?v_6 ?v_193) P36)) (or (or ?v_235 ?v_236) ?v_148)) (or (or ?v_138 ?v_54) ?v_133)) (or (or P47 ?v_152) P4)) (or (or ?v_90 ?v_163) ?v_146)) (or (or ?v_140 P36) P14)) (or (or ?v_134 ?v_103) ?v_114)) (or (or ?v_135 ?v_100) ?v_136)) (or (or ?v_137 P48) ?v_107)) (or (or ?v_52 ?v_138) ?v_139)) (or (or ?v_94 ?v_28) ?v_140)) (or (or ?v_51 ?v_141) ?v_240)) (or (or ?v_142 P18) ?v_88)) (or (or ?v_204 ?v_108) ?v_143)) (or (or ?v_107 ?v_8) ?v_122)) (or (or ?v_144 ?v_145) ?v_189)) (or (or ?v_76 ?v_176) ?v_146)) (or (or ?v_147 P7) ?v_85)) (or (or P29 ?v_43) ?v_131)) (or (or ?v_148 ?v_124) ?v_198)) (or (or ?v_149 ?v_69) ?v_153)) (or (or ?v_55 ?v_150) ?v_99)) (or ?v_151 ?v_152)) (or (or ?v_131 ?v_153) ?v_30)) (or (or P35 ?v_154) ?v_155)) (or (or ?v_84 ?v_76) ?v_171)) (or (or ?v_59 ?v_21) ?v_156)) (or (or ?v_45 ?v_157) ?v_158)) (or (or P18 ?v_159) P47)) (or (or ?v_124 ?v_86) ?v_231)) (or (or ?v_160 ?v_161) ?v_108)) (or (or ?v_169 P5) ?v_95)) (or (or P8 ?v_150) ?v_131)) (or (or ?v_130 ?v_143) ?v_23)) (or (or ?v_162 ?v_163) P35)) (or (or ?v_68 P27) ?v_164)) (or (or P34 ?v_41) ?v_58)) (or (or ?v_205 ?v_97) ?v_166)) (or (or P45 ?v_63) ?v_167)) (or (or ?v_123 ?v_26) P7)) (or (or ?v_108 ?v_90) ?v_35)) (or (or ?v_168 ?v_65) ?v_169)) (or (or ?v_170 ?v_255) ?v_239)) (or (or ?v_30 ?v_133) ?v_13)) (or (or ?v_171 ?v_109) ?v_130)) (or (or ?v_172 ?v_113) ?v_126)) (or (or ?v_150 ?v_69) ?v_111)) (or (or ?v_73 ?v_113) ?v_173)) (or (or ?v_12 ?v_174) ?v_175)) (or (or ?v_58 P16) P25)) (or (or ?v_94 P12) ?v_176)) (or (or ?v_112 ?v_116) ?v_177)) (or (or ?v_144 P41) P0)) (or (or ?v_143 ?v_45) ?v_107)) (or (or ?v_178 ?v_76) ?v_179)) (or (or P44 P17) ?v_175)) (or (or ?v_211 ?v_172) ?v_180)) (or (or ?v_197 ?v_118) P16)) (or (or ?v_81 ?v_181) ?v_162)) (or (or ?v_10 ?v_145) ?v_122)) (or (or ?v_113 ?v_182) ?v_178)) (or (or ?v_120 ?v_17) ?v_183)) (or (or ?v_210 ?v_38) ?v_116)) (or (or ?v_184 ?v_20) ?v_124)) (or (or ?v_67 ?v_174) ?v_185)) (or (or ?v_186 ?v_4) ?v_126)) (or (or (not ?v_53) ?v_169) ?v_146)) (or (or ?v_187 ?v_188) P40)) (or (or ?v_189 ?v_53) P44)) (or (or ?v_46 ?v_100) P31)) (or (or ?v_179 ?v_125) ?v_135)) (or (or ?v_20 ?v_98) P16)) (or (or ?v_190 ?v_191) ?v_192)) (or (or ?v_142 ?v_140) ?v_179)) (or (or ?v_153 ?v_103) ?v_57)) (or (or P9 ?v_94) ?v_76)) (or (or ?v_182 P6) ?v_98)) (or (or ?v_193 ?v_53) P39)) (or (or ?v_194 ?v_60) P49)) (or (or ?v_88 ?v_2) ?v_233)) (or (or ?v_51 ?v_158) P7)) (or (or P17 ?v_238) ?v_180)) (or (or P27 ?v_124) ?v_229)) (or (or ?v_156 ?v_187) P21)) (or (or ?v_268 ?v_195) ?v_140)) (or (or ?v_143 ?v_174) ?v_214)) (or (or ?v_24 P12) ?v_136)) (or (or P40 P9) ?v_80)) (or (or ?v_196 P41) ?v_197)) (or (or ?v_7 ?v_193) ?v_160)) (or (or ?v_118 ?v_98) ?v_198)) (or (or ?v_199 P5) ?v_48)) (or (or ?v_2 ?v_200) ?v_163)) (or (or ?v_120 ?v_26) ?v_80)) (or (or ?v_201 ?v_10) ?v_130)) (or (or ?v_145 ?v_177) ?v_202)) (or (or ?v_47 ?v_172) ?v_203)) (or (or ?v_51 ?v_152) ?v_84)) (or (or ?v_63 P7) ?v_145)) (or (or ?v_144 P23) ?v_48)) (or (or ?v_35 ?v_257) ?v_150)) (or (or P1 ?v_38) ?v_204)) (or (or ?v_158 ?v_193) ?v_170)) (or (or P45 P13) P43)) (or (or ?v_51 ?v_14) ?v_212)) (or (or ?v_82 ?v_132) P22)) (or (or ?v_172 P32) ?v_206)) (or (or ?v_128 ?v_84) ?v_265)) (or (or ?v_187 ?v_200) ?v_198)) (or (or ?v_204 ?v_128) P23)) (or (or ?v_207 P27) P41)) (or (or ?v_41 P48) P32)) (or (or ?v_251 ?v_195) ?v_62)) (or (or P36 ?v_152) ?v_208)) (or (or P7 ?v_120) ?v_121)) (or (or ?v_23 ?v_49) ?v_209)) (or (or ?v_192 ?v_133) ?v_210)) (or (or ?v_163 P16) ?v_180)) (or (or P35 ?v_211) ?v_212)) (or (or P47 P37) ?v_55)) (or (or ?v_2 ?v_139) ?v_115)) (or (or ?v_124 ?v_213) ?v_214)) (or (or ?v_131 ?v_169) ?v_118)) (or (or ?v_152 ?v_129) ?v_174)) (or (or ?v_101 ?v_134) ?v_148)) (or (or ?v_8 P39) ?v_27)) (or (or ?v_215 ?v_46) ?v_216)) (or (or ?v_217 ?v_75) ?v_147)) (or (or ?v_212 ?v_237) ?v_218)) (or (or ?v_93 ?v_30) ?v_219)) (or (or ?v_84 ?v_152) ?v_17)) (or (or ?v_174 ?v_220) P46)) (or (or P34 ?v_262) ?v_137)) (or (or ?v_153 ?v_194) ?v_57)) (or (or ?v_222 ?v_120) ?v_72)) (or (or ?v_223 ?v_184) ?v_248)) (or (or ?v_182 ?v_223) ?v_147)) (or (or ?v_173 ?v_138) ?v_136)) (or (or ?v_224 ?v_126) ?v_225)) (or (or ?v_209 ?v_210) ?v_113)) (or (or ?v_156 ?v_22) ?v_210)) (or (or P49 ?v_54) ?v_226)) (or (or ?v_218 ?v_167) ?v_34)) (or (or ?v_226 ?v_138) ?v_227)) (or (or ?v_21 ?v_219) ?v_130)) (or (or ?v_210 ?v_196) ?v_228)) (or (or ?v_133 ?v_155) ?v_161)) (or (or ?v_250 ?v_244) ?v_229)) (or (or ?v_119 ?v_214) ?v_211)) (or (or ?v_121 P45) ?v_70)) (or (or ?v_230 ?v_103) ?v_70)) (or (or ?v_116 ?v_112) ?v_147)) (or (or ?v_160 ?v_90) ?v_71)) (or (or ?v_170 P1) P34)) (or (or P49 ?v_48) ?v_88)) (or (or ?v_231 P18) ?v_202)) (or (or ?v_103 ?v_41) ?v_0)) (or (or ?v_232 ?v_233) ?v_0)) (or (or P6 ?v_41) P43)) (or (or ?v_215 ?v_110) ?v_65)) (or (or ?v_71 ?v_29) ?v_224)) (or (or ?v_200 ?v_198) ?v_209)) (or (or P3 ?v_108) ?v_167)) (or (or ?v_63 P47) ?v_234)) (or (or ?v_56 ?v_73) ?v_209)) (or (or P27 ?v_45) ?v_231)) (or (or ?v_102 ?v_212) P42)) (or (or P36 ?v_101) ?v_110)) (or (or ?v_154 ?v_175) ?v_235)) (or (or ?v_168 ?v_174) ?v_76)) (or (or ?v_29 ?v_219) ?v_236)) (or (or ?v_177 ?v_158) ?v_31)) (or (or ?v_67 ?v_30) ?v_212)) (or (or ?v_192 ?v_178) P47)) (or (or ?v_164 ?v_75) ?v_131)) (or (or ?v_121 ?v_47) P4)) (or (or P16 ?v_99) ?v_73)) (or (or ?v_26 P31) ?v_67)) (or (or ?v_245 P45) ?v_214)) (or (or ?v_76 ?v_166) ?v_148)) (or (or ?v_132 ?v_223) ?v_185)) (or (or ?v_22 ?v_93) P32)) (or (or ?v_221 ?v_124) ?v_2)) (or (or ?v_35 ?v_114) P14)) (or (or ?v_237 ?v_112) P2)) (or (or ?v_143 ?v_93) ?v_189)) (or (or ?v_175 ?v_4) ?v_132)) (or (or ?v_238 P22) ?v_206)) (or (or ?v_123 ?v_239) ?v_72)) (or (or ?v_197 ?v_166) ?v_85)) (or (or ?v_93 ?v_242) ?v_240)) (or (or ?v_69 ?v_241) ?v_205)) (or (or ?v_163 ?v_113) ?v_31)) (or (or ?v_242 P48) ?v_4)) (or (or ?v_98 ?v_243) ?v_41)) (or (or ?v_75 ?v_159) ?v_29)) (or (or ?v_213 ?v_228) ?v_21)) (or (or ?v_212 ?v_244) ?v_153)) (or (or P43 ?v_244) P49)) (or (or ?v_215 ?v_86) ?v_245)) (or (or ?v_136 ?v_230) ?v_155)) (or (or ?v_113 ?v_26) ?v_211)) (or (or ?v_96 ?v_168) P6)) (or (or P2 ?v_28) ?v_142)) (or (or ?v_167 ?v_231) ?v_4)) (or (or ?v_49 ?v_214) ?v_240)) (or (or P9 ?v_131) P7)) (or (or ?v_224 P37) ?v_246)) (or (or ?v_0 ?v_132) ?v_247)) (or (or ?v_233 ?v_167) ?v_76)) (or (or ?v_122 ?v_73) ?v_173)) (or (or ?v_58 ?v_24) ?v_181)) (or (or ?v_248 ?v_248) ?v_22)) (or (or ?v_249 ?v_71) ?v_200)) (or (or ?v_139 ?v_205) ?v_191)) (or (or ?v_83 P33) ?v_256)) (or (or ?v_24 ?v_93) ?v_150)) (or (or P12 ?v_221) ?v_88)) (or (or P33 ?v_80) ?v_84)) (or (or ?v_200 ?v_247) ?v_47)) (or (or ?v_149 ?v_211) ?v_193)) (or (or ?v_222 ?v_244) ?v_14)) (or (or ?v_121 P8) ?v_129)) (or (or ?v_188 ?v_245) ?v_149)) (or (or ?v_53 ?v_213) ?v_250)) (or (or ?v_175 ?v_223) P5)) (or (or ?v_83 P31) P20)) (or (or ?v_99 ?v_4) ?v_163)) (or (or ?v_129 ?v_226) ?v_200)) (or (or ?v_84 ?v_118) ?v_114)) (or (or ?v_71 P16) ?v_4)) (or (or ?v_150 P4) ?v_251)) (or (or ?v_16 ?v_14) P24)) (or (or ?v_198 ?v_30) ?v_186)) (or (or ?v_198 ?v_5) ?v_186)) (or (or ?v_227 ?v_93) ?v_247)) (or (or P14 ?v_86) ?v_209)) (or (or ?v_108 P42) ?v_14)) (or (or ?v_62 ?v_252) ?v_152)) (or (or ?v_161 ?v_62) P12)) (or (or ?v_173 ?v_133) P33)) (or (or P23 ?v_173) P39)) (or (or ?v_252 ?v_90) P33)) (or (or ?v_214 ?v_127) ?v_47)) (or (or ?v_149 ?v_94) ?v_217)) (or (or ?v_126 ?v_118) ?v_243)) (or (or ?v_220 ?v_63) ?v_65)) (or (or ?v_233 P33) ?v_176)) (or (or ?v_16 ?v_134) ?v_111)) (or (or ?v_126 ?v_90) ?v_161)) (or (or ?v_253 ?v_103) ?v_204)) (or (or ?v_124 ?v_7) P42)) (or (or P2 ?v_189) P16)) (or (or P4 ?v_174) ?v_134)) (or (or ?v_55 ?v_42) ?v_128)) (or (or ?v_115 ?v_234) ?v_136)) (or (or ?v_121 ?v_228) ?v_237)) (or (or ?v_55 ?v_54) ?v_209)) (or (or ?v_105 P21) ?v_152)) (or (or ?v_141 ?v_35) ?v_108)) (or (or ?v_242 ?v_115) P6)) (or (or ?v_54 ?v_249) ?v_141)) (or (or P16 P32) ?v_221)) (or (or ?v_120 ?v_5) ?v_204)) (or (or P47 ?v_240) ?v_216)) (or (or ?v_14 ?v_193) P9)) (or (or ?v_228 ?v_144) ?v_78)) (or (or ?v_131 ?v_53) ?v_128)) (or (or ?v_180 ?v_129) ?v_83)) (or (or ?v_207 ?v_254) ?v_132)) (or (or ?v_80 ?v_22) ?v_65)) (or (or ?v_15 ?v_200) ?v_128)) (or (or ?v_45 ?v_213) ?v_16)) (or (or ?v_187 ?v_205) ?v_249)) (or (or ?v_145 ?v_223) P23)) (or (or ?v_100 ?v_91) ?v_159)) (or (or ?v_255 ?v_131) ?v_91)) (or (or P30 ?v_62) P27)) (or (or ?v_41 ?v_224) ?v_166)) (or (or ?v_139 ?v_69) ?v_99)) (or (or ?v_214 ?v_10) ?v_202)) (or (or ?v_163 ?v_24) ?v_69)) (or (or ?v_256 P46) ?v_232)) (or (or ?v_63 ?v_71) ?v_213)) (or (or P16 P26) ?v_155)) (or (or ?v_157 ?v_78) ?v_213)) (or (or ?v_209 ?v_112) ?v_49)) (or (or P2 ?v_51) ?v_209)) (or (or ?v_51 ?v_171) ?v_88)) (or (or P26 ?v_49) ?v_112)) (or (or ?v_169 ?v_219) ?v_254)) (or (or ?v_24 ?v_219) ?v_254)) (or (or ?v_43 ?v_67) P19)) (or (or ?v_54 ?v_53) ?v_256)) (or (or ?v_74 ?v_14) ?v_71)) (or (or ?v_82 ?v_241) P32)) (or (or P44 P12) ?v_95)) (or (or ?v_133 ?v_174) ?v_255)) (or (or ?v_189 ?v_257) ?v_258)) (or (or ?v_97 ?v_237) ?v_172)) (or (or ?v_5 ?v_15) ?v_28)) (or (or ?v_191 ?v_90) P0)) (or (or ?v_86 ?v_74) ?v_219)) (or (or ?v_129 ?v_225) ?v_56)) (or (or ?v_108 ?v_28) ?v_161)) (or (or ?v_65 ?v_29) ?v_131)) (or (or ?v_198 ?v_254) ?v_38)) (or (or ?v_116 P6) ?v_24)) (or (or ?v_241 ?v_71) ?v_174)) (or (or ?v_161 ?v_103) ?v_74)) (or (or ?v_223 ?v_229) ?v_212)) (or (or ?v_7 P22) P35)) (or (or P21 ?v_236) ?v_230)) (or (or ?v_149 P1) ?v_247)) (or (or ?v_122 ?v_153) ?v_211)) (or (or P19 ?v_118) ?v_251)) (or (or ?v_74 ?v_62) P16)) (or (or ?v_133 ?v_113) P4)) (or (or P12 P43) P20)) (or (or ?v_253 ?v_83) ?v_119)) (or (or ?v_157 ?v_259) ?v_27)) (or (or P35 P16) ?v_230)) (or (or P34 ?v_100) P43)) (or (or ?v_245 ?v_78) ?v_20)) (or (or ?v_43 ?v_76) P10)) (or (or ?v_153 ?v_56) ?v_99)) (or (or ?v_240 ?v_181) ?v_73)) (or (or ?v_259 ?v_171) P24)) (or (or ?v_180 ?v_128) ?v_108)) (or (or ?v_29 ?v_142) P41)) (or (or ?v_0 ?v_78) ?v_259)) (or (or ?v_229 P14) ?v_14)) (or (or ?v_107 ?v_48) ?v_38)) (or (or P40 ?v_43) ?v_215)) (or (or ?v_260 ?v_27) ?v_193)) (or (or ?v_236 ?v_129) ?v_88)) (or (or P6 ?v_51) P28)) (or (or P7 ?v_33) ?v_108)) (or (or ?v_6 ?v_245) P11)) (or (or ?v_93 ?v_241) ?v_148)) (or (or ?v_103 ?v_203) ?v_199)) (or (or ?v_132 ?v_60) ?v_23)) (or (or ?v_169 P26) P33)) (or (or P4 ?v_257) ?v_267)) (or (or ?v_252 ?v_200) ?v_144)) (or (or ?v_229 ?v_98) ?v_184)) (or (or ?v_169 ?v_223) ?v_214)) (or (or ?v_114 ?v_244) P36)) (or (or ?v_248 ?v_58) ?v_170)) (or (or ?v_80 ?v_242) ?v_0)) (or (or ?v_170 P49) ?v_81)) (or (or P42 ?v_70) P10)) (or (or ?v_73 ?v_261) P43)) (or (or ?v_217 ?v_82) ?v_218)) (or (or P3 ?v_193) P46)) (or (or ?v_185 ?v_245) ?v_262)) (or (or ?v_98 ?v_211) ?v_55)) (or (or ?v_246 ?v_204) ?v_200)) (or (or ?v_184 ?v_211) ?v_234)) (or (or P6 ?v_15) P4)) (or (or ?v_258 ?v_174) ?v_200)) (or (or ?v_90 ?v_196) P26)) (or (or ?v_213 ?v_220) ?v_166)) (or (or ?v_13 ?v_205) ?v_186)) (or (or ?v_176 P31) ?v_206)) (or (or ?v_98 ?v_5) ?v_35)) (or (or ?v_158 ?v_55) ?v_178)) (or (or ?v_85 ?v_130) ?v_196)) (or (or ?v_142 P29) ?v_34)) (or (or ?v_263 P9) ?v_166)) (or (or ?v_224 ?v_49) ?v_97)) (or (or ?v_260 ?v_130) ?v_256)) (or (or P43 ?v_226) ?v_17)) (or (or ?v_81 ?v_224) ?v_211)) (or (or ?v_177 ?v_8) ?v_124)) (or (or ?v_213 ?v_86) ?v_5)) (or (or ?v_256 ?v_212) P20)) (or (or ?v_125 ?v_31) ?v_41)) (or (or ?v_93 ?v_86) ?v_241)) (or (or ?v_208 ?v_88) P23)) (or (or P30 ?v_257) ?v_197)) (or (or ?v_143 ?v_109) ?v_244)) (or (or ?v_254 ?v_188) ?v_202)) (or (or ?v_136 ?v_29) ?v_163)) (or (or ?v_176 P19) P49)) (or (or ?v_125 ?v_17) ?v_128)) (or (or ?v_169 ?v_84) P42)) (or (or ?v_242 ?v_183) P24)) (or (or ?v_20 ?v_256) P46)) (or (or ?v_47 ?v_173) ?v_4)) (or (or ?v_86 ?v_209) ?v_262)) (or (or ?v_264 ?v_99) ?v_49)) (or (or ?v_142 ?v_103) ?v_76)) (or (or ?v_244 ?v_236) ?v_109)) (or (or ?v_217 ?v_261) ?v_209)) (or (or ?v_196 ?v_222) ?v_35)) (or (or ?v_265 ?v_162) ?v_172)) (or (or ?v_170 P21) ?v_188)) (or (or P44 ?v_167) ?v_91)) (or (or ?v_163 ?v_191) ?v_85)) (or (or ?v_2 ?v_251) ?v_154)) (or (or ?v_98 P32) ?v_83)) (or (or ?v_254 P20) ?v_95)) (or (or ?v_65 ?v_73) ?v_235)) (or (or ?v_225 ?v_80) ?v_230)) (or (or P20 ?v_193) ?v_116)) (or (or ?v_4 P25) ?v_103)) (or (or ?v_239 ?v_206) ?v_236)) (or (or ?v_259 ?v_21) ?v_22)) (or (or ?v_63 ?v_140) P16)) (or (or ?v_68 ?v_34) ?v_51)) (or (or P45 ?v_152) ?v_0)) (or (or ?v_76 ?v_258) ?v_24)) (or (or ?v_59 ?v_8) ?v_130)) (or (or P25 ?v_166) ?v_29)) (or (or ?v_98 ?v_123) ?v_230)) (or (or ?v_114 P7) P27)) (or (or ?v_177 ?v_65) ?v_242)) (or (or ?v_146 ?v_105) ?v_234)) (or (or ?v_220 ?v_208) P9)) (or (or ?v_179 ?v_266) ?v_203)) (or (or ?v_81 ?v_132) ?v_90)) (or (or P37 ?v_247) ?v_162)) (or (or ?v_91 ?v_193) ?v_228)) (or (or ?v_10 ?v_259) ?v_71)) (or (or P39 ?v_5) P17)) (or (or P0 ?v_175) ?v_56)) (or (or P6 P12) ?v_82)) (or (or ?v_123 ?v_267) ?v_159)) (or (or P37 ?v_169) P30)) (or (or ?v_123 ?v_103) ?v_52)) (or (or P27 P17) ?v_159)) (or (or ?v_223 ?v_135) ?v_206)) (or (or ?v_182 ?v_200) ?v_242)) (or (or ?v_213 ?v_211) ?v_156)) (or (or ?v_5 ?v_80) ?v_197)) (or (or ?v_113 ?v_237) ?v_209)) (or (or ?v_232 ?v_51) P0)) (or (or P33 ?v_268) ?v_138)) (or (or ?v_218 ?v_142) P18)) (or (or ?v_163 ?v_180) ?v_190)) (or (or ?v_33 P46) ?v_129)) (or (or ?v_239 ?v_195) ?v_122)) (or (or ?v_94 ?v_244) P6)) (or (or ?v_94 ?v_182) ?v_229)) (or (or ?v_38 ?v_183) ?v_102)) (or (or ?v_171 ?v_192) ?v_258)) (or (or ?v_224 ?v_188) ?v_258)) (or (or ?v_258 ?v_44) ?v_239)) (or (or ?v_100 ?v_7) ?v_131)) (or (or P23 P31) P37)) (or (or ?v_128 ?v_67) ?v_114)) (or (or ?v_235 ?v_134) P39)) (or (or ?v_150 ?v_102) ?v_58)) (or (or ?v_214 P23) ?v_146)) (or (or ?v_195 ?v_154) ?v_106)) (or (or ?v_0 ?v_21) P48)) (or (or P1 ?v_109) ?v_261)) (or (or ?v_20 ?v_200) P9)) (or (or ?v_110 ?v_68) ?v_81)) (or (or ?v_214 ?v_206) ?v_143)) (or (or ?v_54 ?v_57) ?v_184)) (or (or ?v_62 ?v_34) ?v_215)) (or (or ?v_186 ?v_184) ?v_6)) (or (or ?v_256 ?v_125) ?v_34)) (or (or ?v_201 ?v_190) ?v_29)) (or (or ?v_41 ?v_17) ?v_186)) (or (or P37 ?v_83) ?v_249)) (or (or ?v_196 ?v_255) ?v_262)) (or (or ?v_59 ?v_16) ?v_53)) (or (or ?v_248 ?v_225) ?v_130))))))))))))))))))))))))))))))))))))))
(check-sat)
(exit)
